WARNING: for repeatability, setting FPU to use double precision
============================[ Problem Statistics ]=============================
|                                                                             |
|  Number of variables:         94810                                         |
|  Number of clauses:          279158                                         |
|  Parse time:                   0.06 s                                       |
|                                                                             |
c ============================[ Search Statistics ]==============================
c | Conflicts |          ORIGINAL         |          LEARNT          | Progress |
c |           |    Vars  Clauses Literals |    Limit  Clauses Lit/Cl |          |
c ===============================================================================
c Switched to VSIDS.
c Switched to LRB.
c Switched to VSIDS.
c Switched to LRB.
c Switched to VSIDS.
c Switched to LRB.
c Switched to VSIDS.
c Switched to LRB.
c Switched to VSIDS.
c Switched to LRB.
c Switched to VSIDS.
c Switched to LRB.
c Switched to VSIDS.
c Switched to LRB.
c Switched to VSIDS.
c Switched to LRB.
c Switched to VSIDS.
c Switched to LRB.
c Switched to VSIDS.
c Switched to LRB.
c Switched to VSIDS.
c Switched to LRB.
c ===============================================================================
restarts                  : 2466
conflicts                 : 1144186        (1018 /sec)
decisions                 : 6117048        (0.00 % random) (5444 /sec)
propagations              : 2336737134     (2079541 /sec)
conflict literals         : 220298886      (45.60 % deleted)

conflicts w/ DIP found    : 952376         (83.24 % of conflicts)
conflicts w/ dangerous DIP: 0              (0.00 % of conflicts)
conflicts w/ DIP-learning : 3906           (0.34 % of conflicts)
decisions on ext vars     : 9583           (0.16 % of decisions)
total ext vars            : 393         
tried delete ext vars     : 21          
deleted ext vars          : 21          
max ext vars              : 372         

Memory used               : 381.00 MB
CPU time                  : 1123.68 s
DIP computation time      : 18.0642 s (1.61 % of total time)
ER_sel time               : 1.59937 s
ER_add time               : 0.00276 s
ER_delC time              : 0 s
ER_delV time              : 0.000968 s
ER_sub time               : 2.68221 s
ER_stat time              : 0 s

UNSATISFIABLE
